
(set-logic HORN)
(declare-datatypes ((Bool_372 0)) (((false_372) (true_372))))
(declare-fun diseqBool_169 (Bool_372 Bool_372) Bool)
(declare-fun isfalse_169 (Bool_372) Bool)
(declare-fun istrue_169 (Bool_372) Bool)
(assert (isfalse_169 false_372))
(assert (istrue_169 true_372))
(assert (diseqBool_169 false_372 true_372))
(assert (diseqBool_169 true_372 false_372))
(declare-fun and_372 (Bool_372 Bool_372 Bool_372) Bool)
(declare-fun or_382 (Bool_372 Bool_372 Bool_372) Bool)
(declare-fun hence_372 (Bool_372 Bool_372 Bool_372) Bool)
(declare-fun not_377 (Bool_372 Bool_372) Bool)
(assert (and_372 false_372 false_372 false_372))
(assert (and_372 false_372 true_372 false_372))
(assert (and_372 false_372 false_372 true_372))
(assert (and_372 true_372 true_372 true_372))
(assert (or_382 false_372 false_372 false_372))
(assert (or_382 true_372 true_372 false_372))
(assert (or_382 true_372 false_372 true_372))
(assert (or_382 true_372 true_372 true_372))
(assert (hence_372 true_372 false_372 false_372))
(assert (hence_372 false_372 true_372 false_372))
(assert (hence_372 true_372 false_372 true_372))
(assert (hence_372 true_372 true_372 true_372))
(assert (not_377 true_372 false_372))
(assert (not_377 false_372 true_372))
(declare-datatypes ((list_277 0)) (((nil_309) (cons_277 (head_554 Bool_372) (tail_554 list_277)))))
(declare-fun diseqlist_277 (list_277 list_277) Bool)
(declare-fun head_557 (Bool_372 list_277) Bool)
(declare-fun tail_557 (list_277 list_277) Bool)
(declare-fun isnil_309 (list_277) Bool)
(declare-fun iscons_277 (list_277) Bool)
(assert (forall ((x_57551 Bool_372) (x_57552 list_277))
	(head_557 x_57551 (cons_277 x_57551 x_57552))))
(assert (forall ((x_57551 Bool_372) (x_57552 list_277))
	(tail_557 x_57552 (cons_277 x_57551 x_57552))))
(assert (isnil_309 nil_309))
(assert (forall ((x_57554 Bool_372) (x_57555 list_277))
	(iscons_277 (cons_277 x_57554 x_57555))))
(assert (forall ((x_57556 Bool_372) (x_57557 list_277))
	(diseqlist_277 nil_309 (cons_277 x_57556 x_57557))))
(assert (forall ((x_57558 Bool_372) (x_57559 list_277))
	(diseqlist_277 (cons_277 x_57558 x_57559) nil_309)))
(assert (forall ((x_57560 Bool_372) (x_57561 list_277) (x_57562 Bool_372) (x_57563 list_277))
	(=> (diseqBool_169 x_57560 x_57562) (diseqlist_277 (cons_277 x_57560 x_57561) (cons_277 x_57562 x_57563)))))
(assert (forall ((x_57560 Bool_372) (x_57561 list_277) (x_57562 Bool_372) (x_57563 list_277))
	(=> (diseqlist_277 x_57561 x_57563) (diseqlist_277 (cons_277 x_57560 x_57561) (cons_277 x_57562 x_57563)))))
(declare-datatypes ((T_2 0)) (((A_56) (B_42) (C_24))))
(declare-fun diseqT_2 (T_2 T_2) Bool)
(declare-fun isA_9 (T_2) Bool)
(declare-fun isB_9 (T_2) Bool)
(declare-fun isC_9 (T_2) Bool)
(assert (isA_9 A_56))
(assert (isB_9 B_42))
(assert (isC_9 C_24))
(assert (diseqT_2 A_56 B_42))
(assert (diseqT_2 A_56 C_24))
(assert (diseqT_2 B_42 A_56))
(assert (diseqT_2 C_24 A_56))
(assert (diseqT_2 B_42 C_24))
(assert (diseqT_2 C_24 B_42))
(declare-datatypes ((list_278 0)) (((nil_310) (cons_278 (head_555 T_2) (tail_555 list_278)))))
(declare-fun diseqlist_278 (list_278 list_278) Bool)
(declare-fun head_558 (T_2 list_278) Bool)
(declare-fun tail_558 (list_278 list_278) Bool)
(declare-fun isnil_310 (list_278) Bool)
(declare-fun iscons_278 (list_278) Bool)
(assert (forall ((x_57568 T_2) (x_57569 list_278))
	(head_558 x_57568 (cons_278 x_57568 x_57569))))
(assert (forall ((x_57568 T_2) (x_57569 list_278))
	(tail_558 x_57569 (cons_278 x_57568 x_57569))))
(assert (isnil_310 nil_310))
(assert (forall ((x_57571 T_2) (x_57572 list_278))
	(iscons_278 (cons_278 x_57571 x_57572))))
(assert (forall ((x_57573 T_2) (x_57574 list_278))
	(diseqlist_278 nil_310 (cons_278 x_57573 x_57574))))
(assert (forall ((x_57575 T_2) (x_57576 list_278))
	(diseqlist_278 (cons_278 x_57575 x_57576) nil_310)))
(assert (forall ((x_57577 T_2) (x_57578 list_278) (x_57579 T_2) (x_57580 list_278))
	(=> (diseqT_2 x_57577 x_57579) (diseqlist_278 (cons_278 x_57577 x_57578) (cons_278 x_57579 x_57580)))))
(assert (forall ((x_57577 T_2) (x_57578 list_278) (x_57579 T_2) (x_57580 list_278))
	(=> (diseqlist_278 x_57578 x_57580) (diseqlist_278 (cons_278 x_57577 x_57578) (cons_278 x_57579 x_57580)))))
(declare-datatypes ((pair_100 0)) (((pair_101 (projpair_200 list_278) (projpair_201 list_278)))))
(declare-fun diseqpair_50 (pair_100 pair_100) Bool)
(declare-fun projpair_202 (list_278 pair_100) Bool)
(declare-fun projpair_203 (list_278 pair_100) Bool)
(declare-fun ispair_50 (pair_100) Bool)
(assert (forall ((x_57581 list_278) (x_57582 list_278))
	(projpair_202 x_57581 (pair_101 x_57581 x_57582))))
(assert (forall ((x_57581 list_278) (x_57582 list_278))
	(projpair_203 x_57582 (pair_101 x_57581 x_57582))))
(assert (forall ((x_57584 list_278) (x_57585 list_278))
	(ispair_50 (pair_101 x_57584 x_57585))))
(assert (forall ((x_57586 list_278) (x_57587 list_278) (x_57588 list_278) (x_57589 list_278))
	(=> (diseqlist_278 x_57586 x_57588) (diseqpair_50 (pair_101 x_57586 x_57587) (pair_101 x_57588 x_57589)))))
(assert (forall ((x_57586 list_278) (x_57587 list_278) (x_57588 list_278) (x_57589 list_278))
	(=> (diseqlist_278 x_57587 x_57589) (diseqpair_50 (pair_101 x_57586 x_57587) (pair_101 x_57588 x_57589)))))
(declare-datatypes ((list_279 0)) (((nil_311) (cons_279 (head_556 pair_100) (tail_556 list_279)))))
(declare-fun diseqlist_279 (list_279 list_279) Bool)
(declare-fun head_559 (pair_100 list_279) Bool)
(declare-fun tail_559 (list_279 list_279) Bool)
(declare-fun isnil_311 (list_279) Bool)
(declare-fun iscons_279 (list_279) Bool)
(assert (forall ((x_57591 pair_100) (x_57592 list_279))
	(head_559 x_57591 (cons_279 x_57591 x_57592))))
(assert (forall ((x_57591 pair_100) (x_57592 list_279))
	(tail_559 x_57592 (cons_279 x_57591 x_57592))))
(assert (isnil_311 nil_311))
(assert (forall ((x_57594 pair_100) (x_57595 list_279))
	(iscons_279 (cons_279 x_57594 x_57595))))
(assert (forall ((x_57596 pair_100) (x_57597 list_279))
	(diseqlist_279 nil_311 (cons_279 x_57596 x_57597))))
(assert (forall ((x_57598 pair_100) (x_57599 list_279))
	(diseqlist_279 (cons_279 x_57598 x_57599) nil_311)))
(assert (forall ((x_57600 pair_100) (x_57601 list_279) (x_57602 pair_100) (x_57603 list_279))
	(=> (diseqpair_50 x_57600 x_57602) (diseqlist_279 (cons_279 x_57600 x_57601) (cons_279 x_57602 x_57603)))))
(assert (forall ((x_57600 pair_100) (x_57601 list_279) (x_57602 pair_100) (x_57603 list_279))
	(=> (diseqlist_279 x_57601 x_57603) (diseqlist_279 (cons_279 x_57600 x_57601) (cons_279 x_57602 x_57603)))))
(declare-datatypes ((R_453 0)) (((Nil_312) (Eps_32) (Atom_16 (projAtom_32 T_2)) (x_57455 (proj_36 R_453) (proj_37 R_453)) (x_57456 (proj_38 R_453) (proj_39 R_453)) (Star_16 (projStar_32 R_453)))))
(declare-fun diseqR_16 (R_453 R_453) Bool)
(declare-fun projAtom_33 (T_2 R_453) Bool)
(declare-fun proj_40 (R_453 R_453) Bool)
(declare-fun proj_41 (R_453 R_453) Bool)
(declare-fun proj_42 (R_453 R_453) Bool)
(declare-fun proj_43 (R_453 R_453) Bool)
(declare-fun projStar_33 (R_453 R_453) Bool)
(declare-fun isNil_312 (R_453) Bool)
(declare-fun isEps_16 (R_453) Bool)
(declare-fun isAtom_16 (R_453) Bool)
(declare-fun isx_23 (R_453) Bool)
(declare-fun isx_24 (R_453) Bool)
(declare-fun isStar_16 (R_453) Bool)
(assert (forall ((x_57606 T_2))
	(projAtom_33 x_57606 (Atom_16 x_57606))))
(assert (forall ((x_57608 R_453) (x_57609 R_453))
	(proj_40 x_57608 (x_57455 x_57608 x_57609))))
(assert (forall ((x_57608 R_453) (x_57609 R_453))
	(proj_41 x_57609 (x_57455 x_57608 x_57609))))
(assert (forall ((x_57611 R_453) (x_57612 R_453))
	(proj_42 x_57611 (x_57456 x_57611 x_57612))))
(assert (forall ((x_57611 R_453) (x_57612 R_453))
	(proj_43 x_57612 (x_57456 x_57611 x_57612))))
(assert (forall ((x_57614 R_453))
	(projStar_33 x_57614 (Star_16 x_57614))))
(assert (isNil_312 Nil_312))
(assert (isEps_16 Eps_32))
(assert (forall ((x_57616 T_2))
	(isAtom_16 (Atom_16 x_57616))))
(assert (forall ((x_57617 R_453) (x_57618 R_453))
	(isx_23 (x_57455 x_57617 x_57618))))
(assert (forall ((x_57619 R_453) (x_57620 R_453))
	(isx_24 (x_57456 x_57619 x_57620))))
(assert (forall ((x_57621 R_453))
	(isStar_16 (Star_16 x_57621))))
(assert (diseqR_16 Nil_312 Eps_32))
(assert (forall ((x_57622 T_2))
	(diseqR_16 Nil_312 (Atom_16 x_57622))))
(assert (forall ((x_57623 R_453) (x_57624 R_453))
	(diseqR_16 Nil_312 (x_57455 x_57623 x_57624))))
(assert (forall ((x_57625 R_453) (x_57626 R_453))
	(diseqR_16 Nil_312 (x_57456 x_57625 x_57626))))
(assert (forall ((x_57627 R_453))
	(diseqR_16 Nil_312 (Star_16 x_57627))))
(assert (diseqR_16 Eps_32 Nil_312))
(assert (forall ((x_57628 T_2))
	(diseqR_16 (Atom_16 x_57628) Nil_312)))
(assert (forall ((x_57629 R_453) (x_57630 R_453))
	(diseqR_16 (x_57455 x_57629 x_57630) Nil_312)))
(assert (forall ((x_57631 R_453) (x_57632 R_453))
	(diseqR_16 (x_57456 x_57631 x_57632) Nil_312)))
(assert (forall ((x_57633 R_453))
	(diseqR_16 (Star_16 x_57633) Nil_312)))
(assert (forall ((x_57634 T_2))
	(diseqR_16 Eps_32 (Atom_16 x_57634))))
(assert (forall ((x_57635 R_453) (x_57636 R_453))
	(diseqR_16 Eps_32 (x_57455 x_57635 x_57636))))
(assert (forall ((x_57637 R_453) (x_57638 R_453))
	(diseqR_16 Eps_32 (x_57456 x_57637 x_57638))))
(assert (forall ((x_57639 R_453))
	(diseqR_16 Eps_32 (Star_16 x_57639))))
(assert (forall ((x_57640 T_2))
	(diseqR_16 (Atom_16 x_57640) Eps_32)))
(assert (forall ((x_57641 R_453) (x_57642 R_453))
	(diseqR_16 (x_57455 x_57641 x_57642) Eps_32)))
(assert (forall ((x_57643 R_453) (x_57644 R_453))
	(diseqR_16 (x_57456 x_57643 x_57644) Eps_32)))
(assert (forall ((x_57645 R_453))
	(diseqR_16 (Star_16 x_57645) Eps_32)))
(assert (forall ((x_57646 T_2) (x_57647 R_453) (x_57648 R_453))
	(diseqR_16 (Atom_16 x_57646) (x_57455 x_57647 x_57648))))
(assert (forall ((x_57649 T_2) (x_57650 R_453) (x_57651 R_453))
	(diseqR_16 (Atom_16 x_57649) (x_57456 x_57650 x_57651))))
(assert (forall ((x_57652 T_2) (x_57653 R_453))
	(diseqR_16 (Atom_16 x_57652) (Star_16 x_57653))))
(assert (forall ((x_57654 R_453) (x_57655 R_453) (x_57656 T_2))
	(diseqR_16 (x_57455 x_57654 x_57655) (Atom_16 x_57656))))
(assert (forall ((x_57657 R_453) (x_57658 R_453) (x_57659 T_2))
	(diseqR_16 (x_57456 x_57657 x_57658) (Atom_16 x_57659))))
(assert (forall ((x_57660 R_453) (x_57661 T_2))
	(diseqR_16 (Star_16 x_57660) (Atom_16 x_57661))))
(assert (forall ((x_57662 R_453) (x_57663 R_453) (x_57664 R_453) (x_57665 R_453))
	(diseqR_16 (x_57455 x_57662 x_57663) (x_57456 x_57664 x_57665))))
(assert (forall ((x_57666 R_453) (x_57667 R_453) (x_57668 R_453))
	(diseqR_16 (x_57455 x_57666 x_57667) (Star_16 x_57668))))
(assert (forall ((x_57669 R_453) (x_57670 R_453) (x_57671 R_453) (x_57672 R_453))
	(diseqR_16 (x_57456 x_57669 x_57670) (x_57455 x_57671 x_57672))))
(assert (forall ((x_57673 R_453) (x_57674 R_453) (x_57675 R_453))
	(diseqR_16 (Star_16 x_57673) (x_57455 x_57674 x_57675))))
(assert (forall ((x_57676 R_453) (x_57677 R_453) (x_57678 R_453))
	(diseqR_16 (x_57456 x_57676 x_57677) (Star_16 x_57678))))
(assert (forall ((x_57679 R_453) (x_57680 R_453) (x_57681 R_453))
	(diseqR_16 (Star_16 x_57679) (x_57456 x_57680 x_57681))))
(assert (forall ((x_57682 T_2) (x_57683 T_2))
	(=> (diseqT_2 x_57682 x_57683) (diseqR_16 (Atom_16 x_57682) (Atom_16 x_57683)))))
(assert (forall ((x_57684 R_453) (x_57685 R_453) (x_57686 R_453) (x_57687 R_453))
	(=> (diseqR_16 x_57684 x_57686) (diseqR_16 (x_57455 x_57684 x_57685) (x_57455 x_57686 x_57687)))))
(assert (forall ((x_57684 R_453) (x_57685 R_453) (x_57686 R_453) (x_57687 R_453))
	(=> (diseqR_16 x_57685 x_57687) (diseqR_16 (x_57455 x_57684 x_57685) (x_57455 x_57686 x_57687)))))
(assert (forall ((x_57688 R_453) (x_57689 R_453) (x_57690 R_453) (x_57691 R_453))
	(=> (diseqR_16 x_57688 x_57690) (diseqR_16 (x_57456 x_57688 x_57689) (x_57456 x_57690 x_57691)))))
(assert (forall ((x_57688 R_453) (x_57689 R_453) (x_57690 R_453) (x_57691 R_453))
	(=> (diseqR_16 x_57689 x_57691) (diseqR_16 (x_57456 x_57688 x_57689) (x_57456 x_57690 x_57691)))))
(assert (forall ((x_57692 R_453) (x_57693 R_453))
	(=> (diseqR_16 x_57692 x_57693) (diseqR_16 (Star_16 x_57692) (Star_16 x_57693)))))
(declare-fun splits_2 (list_279 T_2 list_279) Bool)
(assert (forall ((x_57476 list_279) (bs_1 list_278) (cs_1 list_278) (x_57458 list_279) (x_57457 T_2))
	(=> (splits_2 x_57476 x_57457 x_57458) (splits_2 (cons_279 (pair_101 (cons_278 x_57457 bs_1) cs_1) x_57476) x_57457 (cons_279 (pair_101 bs_1 cs_1) x_57458)))))
(assert (forall ((x_57457 T_2))
	(splits_2 nil_311 x_57457 nil_311)))
(declare-fun splits_3 (list_279 list_278) Bool)
(assert (forall ((x_57479 list_279) (x_57480 list_279) (y_2455 T_2) (xs_715 list_278))
	(=> (and (splits_3 x_57479 xs_715) (splits_2 x_57480 y_2455 x_57479)) (splits_3 (cons_279 (pair_101 nil_310 (cons_278 y_2455 xs_715)) x_57480) (cons_278 y_2455 xs_715)))))
(assert (splits_3 (cons_279 (pair_101 nil_310 nil_310) nil_311) nil_310))
(declare-fun or_381 (Bool_372 list_277) Bool)
(assert (forall ((x_57482 Bool_372) (x_57483 Bool_372) (y_2456 Bool_372) (xs_716 list_277))
	(=> (and (or_381 x_57483 xs_716) (or_382 x_57482 y_2456 x_57483)) (or_381 x_57482 (cons_277 y_2456 xs_716)))))
(assert (or_381 false_372 nil_309))
(declare-fun eps_33 (Bool_372 R_453) Bool)
(assert (forall ((y_2457 R_453))
	(eps_33 true_372 (Star_16 y_2457))))
(assert (forall ((x_57486 Bool_372) (x_57487 Bool_372) (x_57488 Bool_372) (r_454 R_453) (q_143 R_453))
	(=> (and (eps_33 x_57487 r_454) (eps_33 x_57488 q_143) (and_372 x_57486 x_57487 x_57488)) (eps_33 x_57486 (x_57456 r_454 q_143)))))
(assert (forall ((x_57489 Bool_372) (x_57490 Bool_372) (x_57491 Bool_372) (p_415 R_453) (q_144 R_453))
	(=> (and (eps_33 x_57490 p_415) (eps_33 x_57491 q_144) (or_382 x_57489 x_57490 x_57491)) (eps_33 x_57489 (x_57455 p_415 q_144)))))
(assert (eps_33 true_372 Eps_32))
(assert (forall ((x_57462 R_453) (x_57474 T_2))
	(eps_33 false_372 (Atom_16 x_57474))))
(assert (forall ((x_57462 R_453))
	(eps_33 false_372 Nil_312)))
(declare-fun step_16 (R_453 R_453 T_2) Bool)
(assert (forall ((x_57496 R_453) (p_416 R_453) (y_2458 T_2))
	(=> (step_16 x_57496 p_416 y_2458) (step_16 (x_57456 x_57496 (Star_16 p_416)) (Star_16 p_416) y_2458))))
(assert (forall ((x_57499 R_453) (x_57500 R_453) (r_455 R_453) (q_145 R_453) (y_2458 T_2))
	(=> (and (step_16 x_57499 r_455 y_2458) (step_16 x_57500 q_145 y_2458) (eps_33 true_372 r_455)) (step_16 (x_57455 (x_57456 x_57499 q_145) x_57500) (x_57456 r_455 q_145) y_2458))))
(assert (forall ((x_57503 R_453) (r_455 R_453) (q_145 R_453) (y_2458 T_2))
	(=> (and (step_16 x_57503 r_455 y_2458) (eps_33 false_372 r_455)) (step_16 (x_57455 (x_57456 x_57503 q_145) Nil_312) (x_57456 r_455 q_145) y_2458))))
(assert (forall ((x_57505 R_453) (x_57506 R_453) (p_417 R_453) (q_146 R_453) (y_2458 T_2))
	(=> (and (step_16 x_57505 p_417 y_2458) (step_16 x_57506 q_146 y_2458)) (step_16 (x_57455 x_57505 x_57506) (x_57455 p_417 q_146) y_2458))))
(assert (forall ((b_43 T_2))
	(step_16 Eps_32 (Atom_16 b_43) b_43)))
(assert (forall ((b_43 T_2) (y_2458 T_2))
	(=> (diseqT_2 b_43 y_2458) (step_16 Nil_312 (Atom_16 b_43) y_2458))))
(assert (forall ((x_57464 R_453) (y_2458 T_2))
	(step_16 Nil_312 Eps_32 y_2458)))
(assert (forall ((x_57464 R_453) (y_2458 T_2))
	(step_16 Nil_312 Nil_312 y_2458)))
(declare-fun rec_2 (Bool_372 R_453 list_278) Bool)
(assert (forall ((x_57511 Bool_372) (x_57512 R_453) (z_2215 T_2) (xs_717 list_278) (x_57465 R_453))
	(=> (and (step_16 x_57512 x_57465 z_2215) (rec_2 x_57511 x_57512 xs_717)) (rec_2 x_57511 x_57465 (cons_278 z_2215 xs_717)))))
(assert (forall ((x_57514 Bool_372) (x_57465 R_453))
	(=> (eps_33 x_57514 x_57465) (rec_2 x_57514 x_57465 nil_310))))
(declare-fun reck_2 (Bool_372 R_453 list_278) Bool)
(declare-fun reck_3 (list_277 R_453 R_453 list_279) Bool)
(assert (forall ((x_57517 Bool_372) (x_57467 T_2) (x_57468 list_278) (p_418 R_453))
	(=> (and (rec_2 x_57517 (x_57456 p_418 (Star_16 p_418)) (cons_278 x_57467 x_57468)) (eps_33 false_372 p_418)) (reck_2 x_57517 (Star_16 p_418) (cons_278 x_57467 x_57468)))))
(assert (forall ((x_57467 T_2) (x_57468 list_278) (p_418 R_453))
	(=> (eps_33 true_372 p_418) (reck_2 false_372 (Star_16 p_418) (cons_278 x_57467 x_57468)))))
(assert (forall ((p_418 R_453))
	(reck_2 true_372 (Star_16 p_418) nil_310)))
(assert (forall ((x_57522 Bool_372) (x_57523 list_279) (x_57524 list_277) (r_456 R_453) (q_147 R_453) (y_2460 list_278))
	(=> (and (splits_3 x_57523 y_2460) (reck_3 x_57524 r_456 q_147 x_57523) (or_381 x_57522 x_57524)) (reck_2 x_57522 (x_57456 r_456 q_147) y_2460))))
(assert (forall ((x_57526 Bool_372) (x_57527 Bool_372) (x_57528 Bool_372) (p_419 R_453) (q_148 R_453) (y_2460 list_278))
	(=> (and (reck_2 x_57527 p_419 y_2460) (reck_2 x_57528 q_148 y_2460) (or_382 x_57526 x_57527 x_57528)) (reck_2 x_57526 (x_57455 p_419 q_148) y_2460))))
(assert (forall ((x_57470 T_2) (x_57471 list_278) (b_44 T_2) (c_25 T_2))
	(reck_2 false_372 (Atom_16 c_25) (cons_278 b_44 (cons_278 x_57470 x_57471)))))
(assert (forall ((b_44 T_2))
	(reck_2 true_372 (Atom_16 b_44) (cons_278 b_44 nil_310))))
(assert (forall ((b_44 T_2) (c_25 T_2))
	(=> (diseqT_2 c_25 b_44) (reck_2 false_372 (Atom_16 c_25) (cons_278 b_44 nil_310)))))
(assert (forall ((c_25 T_2))
	(reck_2 false_372 (Atom_16 c_25) nil_310)))
(assert (forall ((z_2216 T_2) (x_57472 list_278))
	(reck_2 false_372 Eps_32 (cons_278 z_2216 x_57472))))
(assert (reck_2 true_372 Eps_32 nil_310))
(assert (forall ((y_2460 list_278))
	(reck_2 false_372 Nil_312 y_2460)))
(assert (forall ((x_57546 Bool_372) (x_57537 Bool_372) (x_57538 Bool_372) (x_57539 list_277) (l_45 list_278) (r_457 list_278) (z_2217 list_279) (p_420 R_453) (q_149 R_453))
	(=> (and (reck_2 x_57537 p_420 l_45) (rec_2 x_57538 q_149 r_457) (reck_3 x_57539 p_420 q_149 z_2217) (and_372 x_57546 x_57537 x_57538)) (reck_3 (cons_277 x_57546 x_57539) p_420 q_149 (cons_279 (pair_101 l_45 r_457) z_2217)))))
(assert (forall ((p_420 R_453) (q_149 R_453))
	(reck_3 nil_309 p_420 q_149 nil_311)))
(assert (forall ((p_421 R_453))
	(=> (and true (reck_2 true_372 p_421 (cons_278 A_56 (cons_278 B_42 (cons_278 B_42 (cons_278 A_56 nil_310)))))) false)))
(check-sat)
